3 40 1 10
4 16 12 14 16 1 8 16 20 10 9 14 8 19 8 1 20 20 6 3 13 2 11 19 20 2 1 9 20 13 8 5 17 8 5 19 15 11 7 16 
3.03 3.3 2.84 14.82 2.78 10.46 14.57 1.6 7.32 1.59 5.04 13.67 13.01 3.78 8.59 2.61 10.75 1.85 4.51 3.43 3.1 10.73 2.28 11.92 5.43 10.18 6.54 11.7 10.26 12.83 6.22 9.34 6.13 4.52 3.18 2.43 6.31 11.15 8.83 11.58 
8 8 8 8 8 8 8 8 8 8 8 8 8 8 8 8 8 8 8 8 8 8 8 8 8 8 8 8 8 8 8 8 8 8 8 8 8 8 8 8 
2.19 7.29 12.09 8.86 14.66 9.92 9.1 11.52 4.95 2.01 15.54 8.99 1.98 12.56 3.06 14.57 12.3 9.28 12.95 3.27 5.98 13.66 1.52 0.59 10.22 8.43 5.5 8.84 13.64 9.47 1.03 13.45 8.56 14.05 2.69 6.42 15.15 5.13 15.57 11.74 
1 1 1 1 1 1 1 1 1 1 1 1 1 1 1 1 1 1 1 1 1 1 1 1 1 1 1 1 1 1 1 1 1 1 1 1 1 1 1 1 
1 1 1 1 1 1 1 1 1 1 1 1 1 1 1 1 1 1 1 1 1 1 1 1 1 1 1 1 1 1 1 1 1 1 1 1 1 1 1 1 
1 1 1 1 1 1 1 1 1 1 1 1 1 1 1 1 1 1 1 1 1 1 1 1 1 1 1 1 1 1 1 1 1 1 1 1 1 1 1 1 
0.01 0.01 0.01 0.01 0.01 0.01 0.01 0.01 0.01 0.01 0.01 0.01 0.01 0.01 0.01 0.01 0.01 0.01 0.01 0.01 0.01 0.01 0.01 0.01 0.01 0.01 0.01 0.01 0.01 0.01 0.01 0.01 0.01 0.01 0.01 0.01 0.01 0.01 0.01 0.01 
0.02 0.02 0.02 0.02 0.02 0.02 0.02 0.02 0.02 0.02 0.02 0.02 0.02 0.02 0.02 0.02 0.02 0.02 0.02 0.02 0.02 0.02 0.02 0.02 0.02 0.02 0.02 0.02 0.02 0.02 0.02 0.02 0.02 0.02 0.02 0.02 0.02 0.02 0.02 0.02 
1 1 1 1 1 1 1 1 1 1 1 1 1 1 1 1 1 1 1 1 1 1 1 1 1 1 1 1 1 1 1 1 1 1 1 1 1 1 1 1 
